benzene/graphene                        
   1.0000000000000000     
     7.3647400000000003    0.0000000000000000    0.0000000000000000
     0.0000000000000000    8.4705554109999994    0.0000000000000000
     0.0000000000000000    0.0000000000000000   15.0000000000000000
   C    H 
    30     6
Direct
  0.0000000000000000  0.0000000000000000  0.1333333333333329
  0.0000000000000000  0.1673260222298296  0.1333333333333329
  0.1666666053384063  0.2509890364732286  0.1333333333333329
  0.1666666053384063  0.4183150587030582  0.1333333333333329
  0.3333332105410349  0.0000000000000000  0.1333333333333329
  0.3333332105410349  0.1673260222298296  0.1333333333333329
  0.4999998158794483  0.2509890364732286  0.1333333333333329
  0.4999998158794483  0.4183150587030582  0.1333333333333329
  0.6666664210820770  0.0000000000000000  0.1333333333333329
  0.6666664210820770  0.1673260222298296  0.1333333333333329
  0.8333330264204832  0.2509890364732286  0.1333333333333329
  0.8333330264204832  0.4183150587030582  0.1333333333333329
  0.0000000000000000  0.5019780697589482  0.1333333333333329
  0.0000000000000000  0.6693040919887778  0.1333333333333329
  0.1666666053384063  0.7529671062321768  0.1333333333333329
  0.1666666053384063  0.9202931284620135  0.1333333333333329
  0.3333332105410349  0.5019780697589482  0.1333333333333329
  0.3333332105410349  0.6693040919887778  0.1333333333333329
  0.4999998158794483  0.7529671062321768  0.1333333333333329
  0.4999998158794483  0.9202931284620135  0.1333333333333329
  0.6666664210820770  0.5019780697589482  0.1333333333333329
  0.6666664210820770  0.6693040919887778  0.1333333333333329
  0.8333330264204832  0.7529671062321768  0.1333333333333329
  0.8333330264204832  0.9202931284620135  0.1333333333333329
  0.1644528749147938  0.0825519163822364  0.3466666666666640
  0.0000000000000000  0.1651026947045153  0.3466666666666640
  0.1644528749147938  0.9174480836177636  0.3466666666666640
  0.0000000000000000  0.8348973052954847  0.3466666666666640
  0.8355471250852062  0.0825519163822364  0.3466666666666640
  0.8355471250852062  0.9174480836177636  0.3466666666666640
  0.2929227132254510  0.1470413501318362  0.3466666666666640
  0.0000000000000000  0.2940814133350784  0.3466666666666640
  0.2929227132254510  0.8529586498681638  0.3466666666666640
  0.0000000000000000  0.7059185866649216  0.3466666666666640
  0.7070772867745490  0.1470413501318362  0.3466666666666640
  0.7070772867745490  0.8529586498681638  0.3466666666666640

  0.00000000E+00  0.00000000E+00  0.00000000E+00
  0.00000000E+00  0.00000000E+00  0.00000000E+00
  0.00000000E+00  0.00000000E+00  0.00000000E+00
  0.00000000E+00  0.00000000E+00  0.00000000E+00
  0.00000000E+00  0.00000000E+00  0.00000000E+00
  0.00000000E+00  0.00000000E+00  0.00000000E+00
  0.00000000E+00  0.00000000E+00  0.00000000E+00
  0.00000000E+00  0.00000000E+00  0.00000000E+00
  0.00000000E+00  0.00000000E+00  0.00000000E+00
  0.00000000E+00  0.00000000E+00  0.00000000E+00
  0.00000000E+00  0.00000000E+00  0.00000000E+00
  0.00000000E+00  0.00000000E+00  0.00000000E+00
  0.00000000E+00  0.00000000E+00  0.00000000E+00
  0.00000000E+00  0.00000000E+00  0.00000000E+00
  0.00000000E+00  0.00000000E+00  0.00000000E+00
  0.00000000E+00  0.00000000E+00  0.00000000E+00
  0.00000000E+00  0.00000000E+00  0.00000000E+00
  0.00000000E+00  0.00000000E+00  0.00000000E+00
  0.00000000E+00  0.00000000E+00  0.00000000E+00
  0.00000000E+00  0.00000000E+00  0.00000000E+00
  0.00000000E+00  0.00000000E+00  0.00000000E+00
  0.00000000E+00  0.00000000E+00  0.00000000E+00
  0.00000000E+00  0.00000000E+00  0.00000000E+00
  0.00000000E+00  0.00000000E+00  0.00000000E+00
  0.00000000E+00  0.00000000E+00  0.00000000E+00
  0.00000000E+00  0.00000000E+00  0.00000000E+00
  0.00000000E+00  0.00000000E+00  0.00000000E+00
  0.00000000E+00  0.00000000E+00  0.00000000E+00
  0.00000000E+00  0.00000000E+00  0.00000000E+00
  0.00000000E+00  0.00000000E+00  0.00000000E+00
  0.00000000E+00  0.00000000E+00  0.00000000E+00
  0.00000000E+00  0.00000000E+00  0.00000000E+00
  0.00000000E+00  0.00000000E+00  0.00000000E+00
  0.00000000E+00  0.00000000E+00  0.00000000E+00
  0.00000000E+00  0.00000000E+00  0.00000000E+00
  0.00000000E+00  0.00000000E+00  0.00000000E+00
