benzene/graphene
   1.0     
     7.36474        0.0             0.0
     0.0            8.470555411     0.0
     0.0            0.0            15.0
      C    H 
     30     6
Cartesian
        0.000000000     0.000000000     2.000  
        0.000000000     1.417344343     2.000  
        1.227456215     2.126016541     2.000   
        1.227456215     3.543360884     2.000   
        2.454912429     0.000000000     2.000
        2.454912429     1.417344343     2.000
        3.682368644     2.126016541     2.000
        3.682368644     3.543360884     2.000
        4.909824858     0.000000000     2.000
        4.909824858     1.417344343     2.000
        6.137281073     2.126016541     2.000
        6.137281073     3.543360884     2.000      
        0.000000000     4.252033055     2.000
        0.000000000     5.669377398     2.000
        1.227456215     6.378049596     2.000
        1.227456215     7.795393939     2.000
        2.454912429     4.252033055     2.000
        2.454912429     5.669377398     2.000
        3.682368644     6.378049596     2.000
        3.682368644     7.795393939     2.000
        4.909824858     4.252033055     2.000
        4.909824858     5.669377398     2.000
        6.137281073     6.378049596     2.000
        6.137281073     7.795393939     2.000      
        1.211152666     0.699260582     5.200
        0.000000000     1.398511524     5.200
        1.211152666    -0.699260582     5.200
        0.000000000    -1.398511524     5.200
       -1.211152666     0.699260582     5.200
       -1.211152666    -0.699260582     5.200
        2.157299623     1.245521904     5.200
        0.000000000     2.491032907     5.200
        2.157299623    -1.245521904     5.200
        0.000000000    -2.491032907     5.200
       -2.157299623     1.245521904     5.200
       -2.157299623    -1.245521904     5.200
