benzene
   1.0     
     7.36474        0.0             0.0
     0.0            8.470555411     0.0
     0.0            0.0            15.0
      C    H 
      6     6
Cartesian
        1.211152666     0.699260582     5.200
        0.000000000     1.398511524     5.200
        1.211152666    -0.699260582     5.200
        0.000000000    -1.398511524     5.200
       -1.211152666     0.699260582     5.200
       -1.211152666    -0.699260582     5.200
        2.157299623     1.245521904     5.200
        0.000000000     2.491032907     5.200
        2.157299623    -1.245521904     5.200
        0.000000000    -2.491032907     5.200
       -2.157299623     1.245521904     5.200
       -2.157299623    -1.245521904     5.200
